c preprocessed version of dimacs_mulsol.i.5-pp, 52 vertices, 878 edges
p td 52 878
0 1
0 3
0 2
0 4
0 12
0 11
0 10
0 9
0 8
0 7
0 6
2 1
1 3
1 4
1 12
1 11
1 10
1 9
1 8
1 7
1 6
2 3
2 6
2 7
2 8
2 9
2 10
2 11
2 12
2 4
3 4
3 12
3 11
3 10
3 9
3 8
3 7
3 6
5 4
6 4
7 4
8 4
9 4
10 4
11 4
12 4
4 13
4 14
4 15
4 16
4 17
4 18
4 19
4 21
4 23
4 46
4 26
4 25
4 27
4 32
4 31
4 34
4 36
4 33
4 38
4 30
4 35
4 37
4 40
4 42
4 43
4 39
4 41
4 29
4 24
4 22
4 20
4 45
28 4
44 4
5 6
5 7
5 8
5 9
5 10
5 11
5 12
5 13
5 14
5 15
5 16
5 17
5 18
5 19
5 21
5 23
5 46
5 26
5 25
5 27
5 32
5 31
5 34
5 36
5 33
5 38
5 30
5 35
5 37
5 40
5 42
5 43
5 39
5 41
5 29
5 24
5 22
5 20
5 45
44 5
6 7
6 8
6 9
6 10
6 11
6 12
6 13
6 14
6 15
6 16
6 17
6 18
6 19
6 21
6 23
6 46
6 26
6 25
6 27
6 32
6 31
6 34
6 36
6 33
6 38
6 30
6 35
6 37
6 40
6 42
6 43
6 39
6 41
6 29
6 24
6 22
6 20
6 45
44 6
7 8
7 9
7 10
7 11
7 12
7 13
7 14
7 15
7 16
7 17
7 18
7 19
7 21
7 23
7 46
7 26
7 25
7 27
7 32
7 31
7 34
7 36
7 33
7 38
7 30
7 35
7 37
7 40
7 42
7 43
7 39
7 41
7 29
7 24
7 22
7 20
7 45
28 7
44 7
8 9
8 10
8 11
8 12
8 13
8 14
8 15
8 16
8 17
8 18
8 19
8 21
8 23
8 46
8 26
8 25
8 27
8 32
8 31
8 34
8 36
8 33
8 38
8 30
8 35
8 37
8 40
8 42
8 43
8 39
8 41
8 29
8 24
8 22
8 20
8 45
28 8
44 8
9 10
9 11
9 12
9 13
9 14
9 15
9 16
9 17
9 18
9 19
9 21
9 23
9 46
9 26
9 25
9 27
9 32
9 31
9 34
9 36
9 33
9 38
9 30
9 35
9 37
9 40
9 42
9 43
9 39
9 41
9 29
9 24
9 22
9 20
9 45
28 9
44 9
10 11
10 12
10 13
10 14
10 15
10 16
10 17
10 18
10 19
10 21
10 23
10 46
10 26
10 25
10 27
10 32
10 31
10 34
10 36
10 33
10 38
10 30
10 35
10 37
10 40
10 42
10 43
10 39
10 41
10 29
10 24
10 22
10 20
10 45
28 10
44 10
11 12
11 13
11 14
11 15
11 16
11 17
11 18
11 19
11 21
11 23
11 46
11 26
11 25
11 27
11 32
11 31
11 34
11 36
11 33
11 38
11 30
11 35
11 37
11 40
11 42
11 43
11 39
11 41
11 29
11 24
11 22
11 20
11 45
28 11
44 11
12 13
12 14
12 15
12 16
12 17
12 18
12 19
12 21
12 23
12 46
12 26
12 25
12 27
12 32
12 31
12 34
12 36
12 33
12 38
12 30
12 35
12 37
12 40
12 42
12 43
12 39
12 41
12 29
12 24
12 22
12 20
12 45
28 12
44 12
13 14
13 15
13 16
13 17
13 18
13 19
13 21
13 23
13 46
13 26
13 25
13 27
13 32
13 31
13 34
13 36
13 33
13 38
13 30
13 35
13 37
13 40
13 42
13 43
13 39
13 41
13 29
13 24
13 22
13 20
13 45
44 13
14 15
14 16
14 17
14 18
14 19
14 21
14 23
14 46
14 26
14 25
14 27
14 32
14 31
14 34
14 36
14 33
14 38
14 30
14 35
14 37
14 40
14 42
14 43
14 39
14 41
14 29
14 24
14 22
14 20
14 45
44 14
15 16
15 17
15 18
15 19
15 21
15 23
15 46
15 26
15 25
15 27
15 32
15 31
15 34
15 36
15 33
15 38
15 30
15 35
15 37
15 40
15 42
15 43
15 39
15 41
15 29
15 24
15 22
15 20
15 45
44 15
16 17
16 18
16 19
16 21
16 23
16 46
16 26
16 25
16 27
16 32
16 31
16 34
16 36
16 33
16 38
16 30
16 35
16 37
16 40
16 42
16 43
16 39
16 41
16 29
16 24
16 22
16 20
16 45
44 16
17 18
17 19
17 21
17 23
17 46
17 26
17 25
17 27
17 32
17 31
17 34
17 36
17 33
17 38
17 30
17 35
17 37
17 40
17 42
17 43
17 39
17 41
17 29
17 24
17 22
17 20
17 45
44 17
18 19
18 21
18 23
18 46
18 26
18 25
18 27
18 32
18 31
18 34
18 36
18 33
18 38
18 30
18 35
18 37
18 40
18 42
18 43
18 39
18 41
18 29
18 24
18 22
18 20
18 45
44 18
19 20
19 22
19 24
19 29
19 41
19 39
19 40
19 37
19 30
19 25
28 19
44 19
21 20
23 20
25 20
30 20
37 20
40 20
39 20
41 20
29 20
24 20
22 20
20 45
28 20
44 20
21 22
21 24
21 29
21 41
21 39
21 40
21 37
21 30
21 25
28 21
44 21
23 22
25 22
30 22
37 22
40 22
43 22
39 22
41 22
29 22
24 22
22 45
28 22
44 22
23 24
23 29
23 41
23 39
23 40
23 37
23 30
23 25
28 23
44 23
25 24
30 24
37 24
40 24
43 24
39 24
41 24
29 24
24 45
28 24
44 24
26 25
25 29
25 41
25 39
25 43
25 42
25 40
25 37
25 35
25 30
25 38
25 33
25 36
25 34
25 31
25 32
25 27
25 45
28 25
44 25
26 27
28 26
44 26
28 27
44 27
28 29
28 30
28 31
28 32
28 33
28 34
28 35
28 36
28 37
28 38
28 39
28 40
28 41
28 42
28 43
28 45
28 46
28 44
30 29
37 29
40 29
42 29
43 29
39 29
41 29
29 45
44 29
31 30
34 30
36 30
33 30
38 30
30 41
30 39
30 43
30 42
30 40
30 37
30 35
30 45
44 30
32 31
31 38
31 33
31 36
31 34
44 31
32 33
32 36
32 34
44 32
34 33
36 33
33 42
33 40
33 37
33 35
33 38
44 33
34 35
34 38
34 36
44 34
36 35
38 35
35 40
35 37
44 35
36 37
36 38
44 36
38 37
37 41
37 39
37 43
37 42
37 40
37 45
44 37
38 39
38 43
38 42
38 40
44 38
40 39
42 39
43 39
39 41
39 45
44 39
40 41
40 43
40 42
40 45
44 40
42 41
43 41
41 45
44 41
42 43
44 42
44 43
44 45
47 51
47 0
47 2
47 1
47 3
47 48
47 50
47 4
47 12
47 11
47 10
47 9
47 8
47 7
47 6
47 49
48 51
48 0
48 1
48 2
48 3
48 50
48 4
48 12
48 11
48 10
48 9
48 8
48 7
48 6
48 49
49 51
49 0
49 1
49 2
49 3
49 50
49 4
49 5
49 6
49 7
49 8
49 9
49 10
49 11
49 12
49 13
49 14
49 15
49 16
49 17
49 18
49 19
49 20
49 21
49 22
49 23
49 24
49 25
49 26
49 27
49 29
49 30
49 31
49 32
49 33
49 34
49 35
49 36
49 37
49 38
49 39
49 40
49 41
49 42
49 43
49 45
49 46
49 44
50 51
50 0
50 1
50 2
50 3
51 0
51 1
51 2
51 3
51 4
51 6
51 7
51 8
51 9
51 10
51 11
51 12
51 19
51 20
51 21
51 22
51 23
51 24
51 25
51 26
51 27
51 29
51 30
51 31
51 32
51 33
51 34
51 35
51 36
51 37
51 38
51 39
51 40
51 41
51 42
51 43
51 45
51 46
51 28
51 44
